
Gurobi 12.0.0 (win64) logging started Tue Feb  4 13:38:16 2025

Set parameter LogFile to value "ysh_output/8bits_booth_1/grb.log"
Set parameter Presolve to value 2
Set parameter TimeLimit to value 7200
Set parameter MIPGap to value 0.1
Gurobi Optimizer version 12.0.0 build v12.0.0rc1 (win64 - Windows 11.0 (22631.2))

CPU model: 11th Gen Intel(R) Core(TM) i7-1165G7 @ 2.80GHz, instruction set [SSE2|AVX|AVX2|AVX512]
Thread count: 4 physical cores, 8 logical processors, using up to 8 threads

Non-default parameters:
TimeLimit  7200
MIPGap  0.1
Presolve  2

Optimize a model with 1497 rows, 869 columns and 4432 nonzeros
Model fingerprint: 0x41378cd3
Variable types: 382 continuous, 487 integer (487 binary)
Coefficient statistics:
  Matrix range     [2e-02, 1e+30]
  Objective range  [1e+00, 1e+00]
  Bounds range     [1e+00, 1e+00]
  RHS range        [7e-02, 1e+30]
Warning: Model contains large matrix coefficient range
Warning: Model contains large rhs
         Consider reformulating model or setting NumericFocus parameter
         to avoid numerical issues.
Presolve removed 1487 rows and 844 columns
Presolve time: 0.01s
Presolved: 10 rows, 25 columns, 50 nonzeros
Variable types: 0 continuous, 25 integer (25 binary)
Found heuristic solution: objective 0.5328963

Explored 0 nodes (0 simplex iterations) in 0.02 seconds (0.02 work units)
Thread count was 8 (of 8 available processors)

Solution count 1: 0.532896 

Optimal solution found (tolerance 1.00e-01)
Best objective 5.328963398933e-01, best bound 5.328963398933e-01, gap 0.0000%

Gurobi 12.0.0 (win64) logging started Tue Feb  4 13:38:53 2025

Set parameter LogFile to value "ysh_output/8bits_booth_1/grb.log"
Set parameter Presolve to value 2
Set parameter TimeLimit to value 7200
Set parameter MIPGap to value 0.1
Gurobi Optimizer version 12.0.0 build v12.0.0rc1 (win64 - Windows 11.0 (22631.2))

CPU model: 11th Gen Intel(R) Core(TM) i7-1165G7 @ 2.80GHz, instruction set [SSE2|AVX|AVX2|AVX512]
Thread count: 4 physical cores, 8 logical processors, using up to 8 threads

Non-default parameters:
TimeLimit  7200
MIPGap  0.1
Presolve  2

Optimize a model with 1497 rows, 869 columns and 4432 nonzeros
Model fingerprint: 0x41378cd3
Variable types: 382 continuous, 487 integer (487 binary)
Coefficient statistics:
  Matrix range     [2e-02, 1e+30]
  Objective range  [1e+00, 1e+00]
  Bounds range     [1e+00, 1e+00]
  RHS range        [7e-02, 1e+30]
Warning: Model contains large matrix coefficient range
Warning: Model contains large rhs
         Consider reformulating model or setting NumericFocus parameter
         to avoid numerical issues.
Presolve removed 1487 rows and 844 columns
Presolve time: 0.01s
Presolved: 10 rows, 25 columns, 50 nonzeros
Variable types: 0 continuous, 25 integer (25 binary)
Found heuristic solution: objective 0.5328963

Explored 0 nodes (0 simplex iterations) in 0.02 seconds (0.02 work units)
Thread count was 8 (of 8 available processors)

Solution count 1: 0.532896 

Optimal solution found (tolerance 1.00e-01)
Best objective 5.328963398933e-01, best bound 5.328963398933e-01, gap 0.0000%

Gurobi 12.0.0 (win64) logging started Tue Feb  4 15:04:48 2025

Set parameter LogFile to value "ysh_output/8bits_booth_1/grb.log"
Set parameter Presolve to value 2
Set parameter TimeLimit to value 7200
Set parameter MIPGap to value 0.1
Gurobi Optimizer version 12.0.0 build v12.0.0rc1 (win64 - Windows 11.0 (22631.2))

CPU model: 11th Gen Intel(R) Core(TM) i7-1165G7 @ 2.80GHz, instruction set [SSE2|AVX|AVX2|AVX512]
Thread count: 4 physical cores, 8 logical processors, using up to 8 threads

Non-default parameters:
TimeLimit  7200
MIPGap  0.1
Presolve  2

Optimize a model with 1536 rows, 890 columns and 4523 nonzeros
Model fingerprint: 0x020944c4
Variable types: 388 continuous, 502 integer (502 binary)
Coefficient statistics:
  Matrix range     [2e-02, 1e+30]
  Objective range  [1e+00, 1e+00]
  Bounds range     [1e+00, 1e+00]
  RHS range        [7e-02, 1e+30]
Warning: Model contains large matrix coefficient range
Warning: Model contains large rhs
         Consider reformulating model or setting NumericFocus parameter
         to avoid numerical issues.
Presolve removed 1526 rows and 865 columns
Presolve time: 0.01s
Presolved: 10 rows, 25 columns, 50 nonzeros
Variable types: 0 continuous, 25 integer (25 binary)
Found heuristic solution: objective 0.2664482

Explored 0 nodes (0 simplex iterations) in 0.02 seconds (0.02 work units)
Thread count was 8 (of 8 available processors)

Solution count 1: 0.266448 

Optimal solution found (tolerance 1.00e-01)
Best objective 2.664481699467e-01, best bound 2.664481699467e-01, gap 0.0000%
